S = 6;
start = [|0,0,0,0,0,0,0,18,24,0,21,0,2,0,0,0,1,0,0,0,0,10,0,0,0,0,0,0,0,0,0,0,0,26,33,25|
27,0,0,0,0,0,34,0,36,35,0,0,0,0,19,15,13,0,0,0,0,0,23,0,2,0,0,0,0,0,12,0,9,0,5,0|
3,0,0,0,0,7,0,6,12,11,0,5,0,28,0,0,0,32,30,36,0,0,0,0,14,15,0,20,0,0,0,0,21,18,0,0|
5,10,0,12,11,9,8,4,0,1,0,0,36,0,0,29,0,0,0,0,0,32,0,0,24,17,0,22,0,0,0,0,0,0,15,13|
17,0,18,0,0,0,20,0,0,0,19,15,0,0,0,5,0,10,0,2,0,8,0,3,0,35,0,0,27,33,34,32,0,0,36,31|
0,34,30,36,35,33,0,0,0,0,0,0,24,0,0,0,0,22,0,0,0,0,0,0,0,0,9,0,11,6,2,0,7,4,0,0|
0,12,8,10,9,11,6,2,0,0,0,0,34,32,35,0,0,0,0,28,0,0,27,0,0,19,23,24,0,0,0,0,0,0,13,0|
1,6,0,0,3,0,0,0,0,0,0,0,0,26,0,25,27,0,0,0,0,0,33,0,0,13,17,18,15,14,0,24,0,0,19,0|
0,0,0,22,0,0,0,14,0,0,17,0,10,0,0,7,0,0,0,0,0,0,0,0,31,0,0,0,0,34,35,0,0,0,26,29|
0,0,0,0,0,0,0,0,34,33,0,0,0,0,0,0,0,0,0,0,23,0,0,0,0,0,0,6,0,0,0,12,0,0,7,0|
0,0,0,0,0,0,0,0,28,0,0,0,0,0,23,0,21,24,14,0,17,0,0,0,10,0,11,0,0,0,0,0,0,0,0,3|
13,18,14,16,15,0,0,0,22,0,0,0,0,2,5,0,0,6,0,0,0,12,0,7,0,0,28,35,0,0,0,0,0,0,34,33|
23,0,0,0,0,0,0,0,0,17,0,21,8,0,3,11,0,4,10,0,0,0,5,9,35,0,29,25,0,31,28,0,26,0,27,0|
9,2,0,0,0,1,4,0,0,0,0,0,0,34,25,0,0,0,36,0,27,0,0,0,0,0,0,14,0,0,0,16,0,0,0,0|
0,14,22,0,0,0,16,24,0,0,15,23,0,0,0,0,0,0,0,0,0,4,0,11,0,0,0,0,28,27,25,29,0,32,0,35|
33,0,34,0,29,25,28,0,0,0,0,0,0,0,13,21,0,14,24,0,0,0,19,23,6,9,1,0,0,0,0,0,3,0,0,7|
0,0,36,0,0,0,26,34,30,0,25,0,0,0,15,23,19,16,0,18,0,0,0,21,8,11,0,0,0,12,0,0,0,0,0,0|
0,0,0,8,0,0,0,0,0,5,0,0,32,36,0,0,0,0,34,0,0,0,0,0,20,23,15,16,19,0,0,14,13,22,21,0|
0,19,15,0,14,20,0,0,23,0,22,0,0,0,0,0,2,7,0,0,0,9,0,0,0,31,0,0,0,0,0,0,35,0,0,28|
0,0,0,11,12,0,0,3,1,0,0,0,0,0,34,30,0,0,0,25,32,0,0,0,0,0,0,0,24,0,0,19,0,15,16,0|
30,33,29,0,0,0,31,27,25,26,32,0,23,17,22,18,0,0,0,13,0,19,0,0,11,6,0,0,0,5,0,0,8,0,0,0|
0,31,0,0,26,32,0,29,0,0,0,30,0,15,20,16,14,19,0,23,0,0,24,0,1,0,0,7,0,0,0,9,0,0,6,0|
18,0,17,0,0,0,0,0,0,14,0,16,11,0,0,0,0,0,0,0,8,0,2,0,26,28,35,0,0,0,0,34,0,0,0,30|
4,0,0,0,0,0,0,5,11,12,0,0,0,27,0,0,0,0,0,35,0,33,36,0,0,0,0,19,14,0,23,21,0,0,0,0|
0,0,0,0,22,0,0,0,0,0,0,14,9,0,0,0,0,0,0,0,6,0,0,2,30,0,0,0,0,0,0,28,36,0,29,26|
0,0,31,33,34,0,0,25,0,28,30,0,0,0,24,0,22,0,13,0,0,0,0,0,9,0,0,0,10,0,0,5,0,1,2,0|
0,0,0,0,0,0,0,0,0,0,0,0,0,0,0,32,0,35,0,27,30,0,0,0,0,0,0,0,0,0,0,0,0,0,0,16|
2,0,0,0,0,0,11,7,9,10,0,8,0,0,30,0,28,0,31,0,36,0,0,0,0,14,18,17,0,13,0,0,0,0,0,0|
0,0,0,15,0,0,23,19,0,22,0,0,0,1,0,2,0,0,0,0,0,11,0,0,0,34,36,0,0,0,30,0,0,35,0,0|
0,0,0,0,0,0,0,0,0,0,0,0,0,0,18,0,0,17,19,0,0,23,0,20,0,2,0,0,4,1,0,0,12,0,8,0|
10,0,0,0,0,0,0,11,7,0,4,12,0,33,0,34,0,0,35,0,0,0,0,0,17,0,14,13,18,21,19,15,0,23,0,20|
0,3,0,0,8,0,0,0,0,0,0,10,31,35,0,0,32,0,33,29,26,0,0,34,0,0,16,15,0,23,0,0,0,0,22,0|
0,27,35,31,0,28,25,0,29,0,0,34,0,0,0,0,20,15,0,0,0,13,18,0,7,0,0,0,0,0,0,1,2,0,10,6|
0,0,33,29,0,0,27,35,0,0,0,0,0,0,0,0,0,0,0,0,0,15,0,24,5,10,2,0,0,0,0,0,4,0,0,0|
22,0,0,0,0,0,0,0,19,20,16,0,0,0,0,0,6,0,0,7,0,0,0,0,32,29,0,0,0,35,31,0,34,0,28,0|
0,0,23,0,0,16,13,0,17,0,0,22,7,0,0,0,8,3,9,0,2,0,0,0,0,26,34,0,0,30,0,0,0,27,0,0|];